0 0 0 0
0 1 1 0
0 2 0 0
0 3 1 5
0 4 2 4
0 5 0 9
0 6 0 1
0 7 0 4
0 8 0 6
0 9 1 8
0 10 0 1
0 11 0 10
0 12 0 5
0 13 1 4
0 14 0 12
0 15 0 16
0 16 0 10
0 17 0 16
0 18 0 16
0 19 0 13
0 20 2 18
0 21 2 17
0 22 0 18
0 23 0 17
0 24 1 24
0 25 1 20
0 26 1 20
0 27 0 24
0 28 0 32
0 29 1 27
0 30 2 27
0 31 0 35
